pRobustCbss/GLKH-1.1/TMP/mtspf.pid6746.atsp
NAME : mtspf.pid6746.gtsp
TYPE : ATSP
DIMENSION : 14
EDGE_WEIGHT_TYPE : EXPLICIT
EDGE_WEIGHT_FORMAT : FULL_MATRIX
EDGE_WEIGHT_SECTION
999999 5368709 5368721 5368722 5368721 5368720 5368725 5368726 5368725 5368724 5368721 5368722 5368721 5368720 
5368709 999999 5368723 5368722 5368721 5368722 5368724 5368723 5368722 5368723 5368723 5368722 5368721 5368722 
5368709 5368709 999999 0 10737418 10737418 5368723 5368722 5368723 5368724 5368715 5368714 5368715 5368716 
5368709 5368709 10737418 999999 0 10737418 5368725 5368724 5368723 5368724 5368717 5368716 5368715 5368716 
5368709 5368709 10737418 10737418 999999 0 5368724 5368725 5368724 5368723 5368716 5368717 5368716 5368715 
5368709 5368709 0 10737418 10737418 999999 5368722 5368723 5368724 5368723 5368714 5368715 5368716 5368715 
5368709 5368709 5368724 5368723 5368724 5368725 999999 0 10737418 10737418 5368720 5368719 5368720 5368721 
5368709 5368709 5368724 5368723 5368722 5368723 10737418 999999 0 10737418 5368720 5368719 5368718 5368719 
5368709 5368709 5368723 5368724 5368723 5368722 10737418 10737418 999999 0 5368719 5368720 5368719 5368718 
5368709 5368709 5368723 5368724 5368725 5368724 0 10737418 10737418 999999 5368719 5368720 5368721 5368720 
5368709 5368709 5368716 5368715 5368716 5368717 5368719 5368718 5368719 5368720 999999 0 10737418 10737418 
5368709 5368709 5368716 5368715 5368714 5368715 5368721 5368720 5368719 5368720 10737418 999999 0 10737418 
5368709 5368709 5368715 5368716 5368715 5368714 5368720 5368721 5368720 5368719 10737418 10737418 999999 0 
5368709 5368709 5368715 5368716 5368717 5368716 5368718 5368719 5368720 5368719 0 10737418 10737418 999999 
EOF
