pRobustCbss/GLKH-1.1/TMP/mtspf.pid6746.tour
NAME : mtspf.pid6746.gtsp.26843571.tour
COMMENT : Length = 26843571
COMMENT : Found by LKH [Keld Helsgaun] Sun Dec 22 18:02:48 2024
TYPE : TOUR
DIMENSION : 14
TOUR_SECTION
1
3
4
5
6
11
12
13
14
7
8
9
10
2
-1
EOF
